results/filo/x-long/X-n139-k10.vrp_seed-8.vrp.sol
Route #1: 104 136 83 68 116 128 47 119 1 18 21 103 28 63
Route #2: 7 30 84 51 39 8 15 60 59 42 67 100 71 91
Route #3: 54 75 133 64 127 130 93 132 107 92 41 80 78 120 73
Route #4: 79 121 20 45 110 35 58 31 97 13 10 109
Route #5: 88 70 74 50 123 27 115 34 131 38 69 94 108 9
Route #6: 29 57 44 65 48 61 19 66 72 117 87 52 126 95
Route #7: 3 81 102 134 40 37 17 11 101 14 135 33 86 89
Route #8: 56 76 111 105 82 106 77 43 46 55 138 122 98
Route #9: 124 62 4 23 26 22 112 25 125 137 114 32 16
Route #10: 118 85 24 36 129 53 96 5 6 113 90 12 49 2 99
Cost 13590.000000