results/filo2/x-long/X-n139-k10.vrp_seed-8.out
13590	1002
